(declare-const tokenlen Int)
(declare-const term_to_project_onto1_integralized Int)
(declare-const c Int)
(declare-const cp Int)
(declare-const havoc Int)
(declare-const |tmp___0'| Int)
(declare-const term_to_project_onto_integralized Int)
(declare-const |c'| Int)
(declare-const |cp'| Int)
(declare-const tmp___0 Int)
(declare-const term_to_project_onto0_integralized Int)
(declare-const phi_c Int)
(declare-const urilen Int)
(assert (and (<= (- c) 0) (<= (+ (- cp) 1) 0) (<= (+ (- tokenlen) 1) 0)
               (<= (+ (- urilen) 1) 0)
               (or (<= (+ (- urilen) cp 2) 0) (<= (+ urilen (- cp)) 0))
               (<= (+ (- tokenlen) c 2) 0) (<= (+ (- urilen) cp 1) 0)
               (<= (- cp) 0)
               (or (and (= havoc 0) (= (+ (- phi_c) c) 0))
                     (and (or (<= (+ havoc 1) 0) (<= (+ (- havoc) 1) 0))
                            (<= (+ (- tokenlen) c 2) 0) (<= (+ (- c) -1) 0)
                            (<= (+ (- urilen) cp 1) 0) (<= (- cp) 0)
                            (= (+ (- phi_c) c 1) 0)))
               (= (+ |tmp___0'| (- havoc)) 0) (= (+ |c'| (- phi_c)) 0)
               (= (+ |cp'| (- cp) -1) 0)
               (= (+ term_to_project_onto1_integralized (- (+ |cp'| (- cp)))) 0)
               (= (+ term_to_project_onto0_integralized (- (+ |c'| (- c)))) 0)
               (= (+ term_to_project_onto_integralized
                       (- (+ |tmp___0'| (- tmp___0)))) 0)))